WARNING: for repeatability, setting FPU to use double precision
============================[ Problem Statistics ]=============================
|                                                                             |
|  Number of variables:            50                                         |
|  Number of clauses:             218                                         |
|  Parse time:                   0.00 s                                       |
|                                                                             |
============================[ Search Statistics ]==============================
| Conflicts |          ORIGINAL         |          LEARNT          | Progress |
|           |    Vars  Clauses Literals |    Limit  Clauses Lit/Cl |          |
===============================================================================
===============================================================================
restarts              : 1
conflicts             : 43             (307143 /sec)
decisions             : 48             (0.00 % random) (342857 /sec)
propagations          : 555            (3964286 /sec)
conflict literals     : 125            (14.38 % deleted)
Memory used           : 20.00 MB
CPU time              : 0.00014 s

UNSATISFIABLE
